c nIsolatedPIs 0
c maxPI 16
p cnf 413 1192
c gate 17 5 10 0
5 -17 0
10 -17 0
-5 -10 17 0
c gate 18 6 9 0
6 -18 0
9 -18 0
-6 -9 18 0
c gate 19 17 18 0
17 -19 0
18 -19 0
-17 -18 19 0
c gate 20 -17 -18 0
-17 -20 0
-18 -20 0
17 18 20 0
c gate 21 -19 -20 0
-19 -21 0
-20 -21 0
19 20 21 0
c gate 22 4 11 0
4 -22 0
11 -22 0
-4 -11 22 0
c gate 23 21 22 0
21 -23 0
22 -23 0
-21 -22 23 0
c gate 24 -19 -23 0
-19 -24 0
-23 -24 0
19 23 24 0
c gate 25 5 11 0
5 -25 0
11 -25 0
-5 -11 25 0
c gate 26 6 10 0
6 -26 0
10 -26 0
-6 -10 26 0
c gate 27 7 9 0
7 -27 0
9 -27 0
-7 -9 27 0
c gate 28 -26 -27 0
-26 -28 0
-27 -28 0
26 27 28 0
c gate 29 26 27 0
26 -29 0
27 -29 0
-26 -27 29 0
c gate 30 -28 -29 0
-28 -30 0
-29 -30 0
28 29 30 0
c gate 31 25 30 0
25 -31 0
30 -31 0
-25 -30 31 0
c gate 32 -25 -30 0
-25 -32 0
-30 -32 0
25 30 32 0
c gate 33 -31 -32 0
-31 -33 0
-32 -33 0
31 32 33 0
c gate 34 -24 33 0
-24 -34 0
33 -34 0
24 -33 34 0
c gate 35 2 14 0
2 -35 0
14 -35 0
-2 -14 35 0
c gate 36 3 13 0
3 -36 0
13 -36 0
-3 -13 36 0
c gate 37 4 12 0
4 -37 0
12 -37 0
-4 -12 37 0
c gate 38 -36 -37 0
-36 -38 0
-37 -38 0
36 37 38 0
c gate 39 36 37 0
36 -39 0
37 -39 0
-36 -37 39 0
c gate 40 -38 -39 0
-38 -40 0
-39 -40 0
38 39 40 0
c gate 41 -35 -40 0
-35 -41 0
-40 -41 0
35 40 41 0
c gate 42 35 40 0
35 -42 0
40 -42 0
-35 -40 42 0
c gate 43 -41 -42 0
-41 -43 0
-42 -43 0
41 42 43 0
c gate 44 24 -33 0
24 -44 0
-33 -44 0
-24 33 44 0
c gate 45 -34 -44 0
-34 -45 0
-44 -45 0
34 44 45 0
c gate 46 43 45 0
43 -46 0
45 -46 0
-43 -45 46 0
c gate 47 -34 -46 0
-34 -47 0
-46 -47 0
34 46 47 0
c gate 48 3 14 0
3 -48 0
14 -48 0
-3 -14 48 0
c gate 49 4 13 0
4 -49 0
13 -49 0
-4 -13 49 0
c gate 50 5 12 0
5 -50 0
12 -50 0
-5 -12 50 0
c gate 51 -49 -50 0
-49 -51 0
-50 -51 0
49 50 51 0
c gate 52 49 50 0
49 -52 0
50 -52 0
-49 -50 52 0
c gate 53 -51 -52 0
-51 -53 0
-52 -53 0
51 52 53 0
c gate 54 -48 -53 0
-48 -54 0
-53 -54 0
48 53 54 0
c gate 55 48 53 0
48 -55 0
53 -55 0
-48 -53 55 0
c gate 56 -54 -55 0
-54 -56 0
-55 -56 0
54 55 56 0
c gate 57 -29 -31 0
-29 -57 0
-31 -57 0
29 31 57 0
c gate 58 6 11 0
6 -58 0
11 -58 0
-6 -11 58 0
c gate 59 7 10 0
7 -59 0
10 -59 0
-7 -10 59 0
c gate 60 8 9 0
8 -60 0
9 -60 0
-8 -9 60 0
c gate 61 -59 -60 0
-59 -61 0
-60 -61 0
59 60 61 0
c gate 62 59 60 0
59 -62 0
60 -62 0
-59 -60 62 0
c gate 63 -61 -62 0
-61 -63 0
-62 -63 0
61 62 63 0
c gate 64 58 63 0
58 -64 0
63 -64 0
-58 -63 64 0
c gate 65 -58 -63 0
-58 -65 0
-63 -65 0
58 63 65 0
c gate 66 -64 -65 0
-64 -66 0
-65 -66 0
64 65 66 0
c gate 67 -57 66 0
-57 -67 0
66 -67 0
57 -66 67 0
c gate 68 57 -66 0
57 -68 0
-66 -68 0
-57 66 68 0
c gate 69 -67 -68 0
-67 -69 0
-68 -69 0
67 68 69 0
c gate 70 56 69 0
56 -70 0
69 -70 0
-56 -69 70 0
c gate 71 -56 -69 0
-56 -71 0
-69 -71 0
56 69 71 0
c gate 72 -70 -71 0
-70 -72 0
-71 -72 0
70 71 72 0
c gate 73 -47 72 0
-47 -73 0
72 -73 0
47 -72 73 0
c gate 74 1 16 0
1 -74 0
16 -74 0
-1 -16 74 0
c gate 75 2 15 0
2 -75 0
15 -75 0
-2 -15 75 0
c gate 76 -39 -42 0
-39 -76 0
-42 -76 0
39 42 76 0
c gate 77 75 -76 0
75 -77 0
-76 -77 0
-75 76 77 0
c gate 78 -75 76 0
-75 -78 0
76 -78 0
75 -76 78 0
c gate 79 -77 -78 0
-77 -79 0
-78 -79 0
77 78 79 0
c gate 80 -74 -79 0
-74 -80 0
-79 -80 0
74 79 80 0
c gate 81 74 79 0
74 -81 0
79 -81 0
-74 -79 81 0
c gate 82 -80 -81 0
-80 -82 0
-81 -82 0
80 81 82 0
c gate 83 47 -72 0
47 -83 0
-72 -83 0
-47 72 83 0
c gate 84 -73 -83 0
-73 -84 0
-83 -84 0
73 83 84 0
c gate 85 82 84 0
82 -85 0
84 -85 0
-82 -84 85 0
c gate 86 -73 -85 0
-73 -86 0
-85 -86 0
73 85 86 0
c gate 87 2 16 0
2 -87 0
16 -87 0
-2 -16 87 0
c gate 88 3 15 0
3 -88 0
15 -88 0
-3 -15 88 0
c gate 89 -52 -55 0
-52 -89 0
-55 -89 0
52 55 89 0
c gate 90 88 -89 0
88 -90 0
-89 -90 0
-88 89 90 0
c gate 91 -88 89 0
-88 -91 0
89 -91 0
88 -89 91 0
c gate 92 -90 -91 0
-90 -92 0
-91 -92 0
90 91 92 0
c gate 93 87 92 0
87 -93 0
92 -93 0
-87 -92 93 0
c gate 94 -87 -92 0
-87 -94 0
-92 -94 0
87 92 94 0
c gate 95 -93 -94 0
-93 -95 0
-94 -95 0
93 94 95 0
c gate 96 -67 -70 0
-67 -96 0
-70 -96 0
67 70 96 0
c gate 97 4 14 0
4 -97 0
14 -97 0
-4 -14 97 0
c gate 98 5 13 0
5 -98 0
13 -98 0
-5 -13 98 0
c gate 99 6 12 0
6 -99 0
12 -99 0
-6 -12 99 0
c gate 100 -98 -99 0
-98 -100 0
-99 -100 0
98 99 100 0
c gate 101 98 99 0
98 -101 0
99 -101 0
-98 -99 101 0
c gate 102 -100 -101 0
-100 -102 0
-101 -102 0
100 101 102 0
c gate 103 -97 -102 0
-97 -103 0
-102 -103 0
97 102 103 0
c gate 104 97 102 0
97 -104 0
102 -104 0
-97 -102 104 0
c gate 105 -103 -104 0
-103 -105 0
-104 -105 0
103 104 105 0
c gate 106 8 10 0
8 -106 0
10 -106 0
-8 -10 106 0
c gate 107 7 11 0
7 -107 0
11 -107 0
-7 -11 107 0
c gate 108 -106 -107 0
-106 -108 0
-107 -108 0
106 107 108 0
c gate 109 106 107 0
106 -109 0
107 -109 0
-106 -107 109 0
c gate 110 -108 -109 0
-108 -110 0
-109 -110 0
108 109 110 0
c gate 111 -62 -64 0
-62 -111 0
-64 -111 0
62 64 111 0
c gate 112 110 -111 0
110 -112 0
-111 -112 0
-110 111 112 0
c gate 113 -110 111 0
-110 -113 0
111 -113 0
110 -111 113 0
c gate 114 -112 -113 0
-112 -114 0
-113 -114 0
112 113 114 0
c gate 115 105 114 0
105 -115 0
114 -115 0
-105 -114 115 0
c gate 116 -105 -114 0
-105 -116 0
-114 -116 0
105 114 116 0
c gate 117 -115 -116 0
-115 -117 0
-116 -117 0
115 116 117 0
c gate 118 -96 117 0
-96 -118 0
117 -118 0
96 -117 118 0
c gate 119 96 -117 0
96 -119 0
-117 -119 0
-96 117 119 0
c gate 120 -118 -119 0
-118 -120 0
-119 -120 0
118 119 120 0
c gate 121 95 120 0
95 -121 0
120 -121 0
-95 -120 121 0
c gate 122 -95 -120 0
-95 -122 0
-120 -122 0
95 120 122 0
c gate 123 -121 -122 0
-121 -123 0
-122 -123 0
121 122 123 0
c gate 124 -86 123 0
-86 -124 0
123 -124 0
86 -123 124 0
c gate 125 -77 -81 0
-77 -125 0
-81 -125 0
77 81 125 0
c gate 126 86 -123 0
86 -126 0
-123 -126 0
-86 123 126 0
c gate 127 -124 -126 0
-124 -127 0
-126 -127 0
124 126 127 0
c gate 128 -125 127 0
-125 -128 0
127 -128 0
125 -127 128 0
c gate 129 -124 -128 0
-124 -129 0
-128 -129 0
124 128 129 0
c gate 130 -90 -93 0
-90 -130 0
-93 -130 0
90 93 130 0
c gate 131 -118 -121 0
-118 -131 0
-121 -131 0
118 121 131 0
c gate 132 3 16 0
3 -132 0
16 -132 0
-3 -16 132 0
c gate 133 4 15 0
4 -133 0
15 -133 0
-4 -15 133 0
c gate 134 -101 -104 0
-101 -134 0
-104 -134 0
101 104 134 0
c gate 135 133 -134 0
133 -135 0
-134 -135 0
-133 134 135 0
c gate 136 -133 134 0
-133 -136 0
134 -136 0
133 -134 136 0
c gate 137 -135 -136 0
-135 -137 0
-136 -137 0
135 136 137 0
c gate 138 132 137 0
132 -138 0
137 -138 0
-132 -137 138 0
c gate 139 -132 -137 0
-132 -139 0
-137 -139 0
132 137 139 0
c gate 140 -138 -139 0
-138 -140 0
-139 -140 0
138 139 140 0
c gate 141 -112 -115 0
-112 -141 0
-115 -141 0
112 115 141 0
c gate 142 5 14 0
5 -142 0
14 -142 0
-5 -14 142 0
c gate 143 6 13 0
6 -143 0
13 -143 0
-6 -13 143 0
c gate 144 7 12 0
7 -144 0
12 -144 0
-7 -12 144 0
c gate 145 -143 -144 0
-143 -145 0
-144 -145 0
143 144 145 0
c gate 146 143 144 0
143 -146 0
144 -146 0
-143 -144 146 0
c gate 147 -145 -146 0
-145 -147 0
-146 -147 0
145 146 147 0
c gate 148 -142 -147 0
-142 -148 0
-147 -148 0
142 147 148 0
c gate 149 142 147 0
142 -149 0
147 -149 0
-142 -147 149 0
c gate 150 -148 -149 0
-148 -150 0
-149 -150 0
148 149 150 0
c gate 151 8 11 0
8 -151 0
11 -151 0
-8 -11 151 0
c gate 152 -59 151 0
-59 -152 0
151 -152 0
59 -151 152 0
c gate 153 150 152 0
150 -153 0
152 -153 0
-150 -152 153 0
c gate 154 -150 -152 0
-150 -154 0
-152 -154 0
150 152 154 0
c gate 155 -153 -154 0
-153 -155 0
-154 -155 0
153 154 155 0
c gate 156 -141 155 0
-141 -156 0
155 -156 0
141 -155 156 0
c gate 157 141 -155 0
141 -157 0
-155 -157 0
-141 155 157 0
c gate 158 -156 -157 0
-156 -158 0
-157 -158 0
156 157 158 0
c gate 159 140 158 0
140 -159 0
158 -159 0
-140 -158 159 0
c gate 160 -140 -158 0
-140 -160 0
-158 -160 0
140 158 160 0
c gate 161 -159 -160 0
-159 -161 0
-160 -161 0
159 160 161 0
c gate 162 -131 161 0
-131 -162 0
161 -162 0
131 -161 162 0
c gate 163 131 -161 0
131 -163 0
-161 -163 0
-131 161 163 0
c gate 164 -162 -163 0
-162 -164 0
-163 -164 0
162 163 164 0
c gate 165 -130 164 0
-130 -165 0
164 -165 0
130 -164 165 0
c gate 166 130 -164 0
130 -166 0
-164 -166 0
-130 164 166 0
c gate 167 -165 -166 0
-165 -167 0
-166 -167 0
165 166 167 0
c gate 168 129 -167 0
129 -168 0
-167 -168 0
-129 167 168 0
c gate 169 -162 -165 0
-162 -169 0
-165 -169 0
162 165 169 0
c gate 170 -135 -138 0
-135 -170 0
-138 -170 0
135 138 170 0
c gate 171 -156 -159 0
-156 -171 0
-159 -171 0
156 159 171 0
c gate 172 4 16 0
4 -172 0
16 -172 0
-4 -16 172 0
c gate 173 5 15 0
5 -173 0
15 -173 0
-5 -15 173 0
c gate 174 -146 -149 0
-146 -174 0
-149 -174 0
146 149 174 0
c gate 175 173 -174 0
173 -175 0
-174 -175 0
-173 174 175 0
c gate 176 -173 174 0
-173 -176 0
174 -176 0
173 -174 176 0
c gate 177 -175 -176 0
-175 -177 0
-176 -177 0
175 176 177 0
c gate 178 172 177 0
172 -178 0
177 -178 0
-172 -177 178 0
c gate 179 -172 -177 0
-172 -179 0
-177 -179 0
172 177 179 0
c gate 180 -178 -179 0
-178 -180 0
-179 -180 0
178 179 180 0
c gate 181 6 14 0
6 -181 0
14 -181 0
-6 -14 181 0
c gate 182 7 13 0
7 -182 0
13 -182 0
-7 -13 182 0
c gate 183 8 12 0
8 -183 0
12 -183 0
-8 -12 183 0
c gate 184 -182 -183 0
-182 -184 0
-183 -184 0
182 183 184 0
c gate 185 182 183 0
182 -185 0
183 -185 0
-182 -183 185 0
c gate 186 -184 -185 0
-184 -186 0
-185 -186 0
184 185 186 0
c gate 187 181 186 0
181 -187 0
186 -187 0
-181 -186 187 0
c gate 188 -181 -186 0
-181 -188 0
-186 -188 0
181 186 188 0
c gate 189 -187 -188 0
-187 -189 0
-188 -189 0
187 188 189 0
c gate 190 -109 -153 0
-109 -190 0
-153 -190 0
109 153 190 0
c gate 191 189 -190 0
189 -191 0
-190 -191 0
-189 190 191 0
c gate 192 -189 190 0
-189 -192 0
190 -192 0
189 -190 192 0
c gate 193 -191 -192 0
-191 -193 0
-192 -193 0
191 192 193 0
c gate 194 180 193 0
180 -194 0
193 -194 0
-180 -193 194 0
c gate 195 -180 -193 0
-180 -195 0
-193 -195 0
180 193 195 0
c gate 196 -194 -195 0
-194 -196 0
-195 -196 0
194 195 196 0
c gate 197 -171 196 0
-171 -197 0
196 -197 0
171 -196 197 0
c gate 198 171 -196 0
171 -198 0
-196 -198 0
-171 196 198 0
c gate 199 -197 -198 0
-197 -199 0
-198 -199 0
197 198 199 0
c gate 200 -170 199 0
-170 -200 0
199 -200 0
170 -199 200 0
c gate 201 170 -199 0
170 -201 0
-199 -201 0
-170 199 201 0
c gate 202 -200 -201 0
-200 -202 0
-201 -202 0
200 201 202 0
c gate 203 169 -202 0
169 -203 0
-202 -203 0
-169 202 203 0
c gate 204 -168 -203 0
-168 -204 0
-203 -204 0
168 203 204 0
c gate 205 5 9 0
5 -205 0
9 -205 0
-5 -9 205 0
c gate 206 4 10 0
4 -206 0
10 -206 0
-4 -10 206 0
c gate 207 205 206 0
205 -207 0
206 -207 0
-205 -206 207 0
c gate 208 3 11 0
3 -208 0
11 -208 0
-3 -11 208 0
c gate 209 -205 -206 0
-205 -209 0
-206 -209 0
205 206 209 0
c gate 210 -207 -209 0
-207 -210 0
-209 -210 0
207 209 210 0
c gate 211 208 210 0
208 -211 0
210 -211 0
-208 -210 211 0
c gate 212 -207 -211 0
-207 -212 0
-211 -212 0
207 211 212 0
c gate 213 -21 -22 0
-21 -213 0
-22 -213 0
21 22 213 0
c gate 214 -23 -213 0
-23 -214 0
-213 -214 0
23 213 214 0
c gate 215 -212 214 0
-212 -215 0
214 -215 0
212 -214 215 0
c gate 216 212 -214 0
212 -216 0
-214 -216 0
-212 214 216 0
c gate 217 -215 -216 0
-215 -217 0
-216 -217 0
215 216 217 0
c gate 218 1 14 0
1 -218 0
14 -218 0
-1 -14 218 0
c gate 219 3 12 0
3 -219 0
12 -219 0
-3 -12 219 0
c gate 220 2 13 0
2 -220 0
13 -220 0
-2 -13 220 0
c gate 221 219 220 0
219 -221 0
220 -221 0
-219 -220 221 0
c gate 222 -219 -220 0
-219 -222 0
-220 -222 0
219 220 222 0
c gate 223 -221 -222 0
-221 -223 0
-222 -223 0
221 222 223 0
c gate 224 218 223 0
218 -224 0
223 -224 0
-218 -223 224 0
c gate 225 -218 -223 0
-218 -225 0
-223 -225 0
218 223 225 0
c gate 226 -224 -225 0
-224 -226 0
-225 -226 0
224 225 226 0
c gate 227 217 226 0
217 -227 0
226 -227 0
-217 -226 227 0
c gate 228 -215 -227 0
-215 -228 0
-227 -228 0
215 227 228 0
c gate 229 -43 -45 0
-43 -229 0
-45 -229 0
43 45 229 0
c gate 230 -46 -229 0
-46 -230 0
-229 -230 0
46 229 230 0
c gate 231 -228 230 0
-228 -231 0
230 -231 0
228 -230 231 0
c gate 232 1 15 0
1 -232 0
15 -232 0
-1 -15 232 0
c gate 233 -221 -224 0
-221 -233 0
-224 -233 0
221 224 233 0
c gate 234 232 -233 0
232 -234 0
-233 -234 0
-232 233 234 0
c gate 235 -232 233 0
-232 -235 0
233 -235 0
232 -233 235 0
c gate 236 -234 -235 0
-234 -236 0
-235 -236 0
234 235 236 0
c gate 237 228 -230 0
228 -237 0
-230 -237 0
-228 230 237 0
c gate 238 -231 -237 0
-231 -238 0
-237 -238 0
231 237 238 0
c gate 239 236 238 0
236 -239 0
238 -239 0
-236 -238 239 0
c gate 240 -231 -239 0
-231 -240 0
-239 -240 0
231 239 240 0
c gate 241 -82 -84 0
-82 -241 0
-84 -241 0
82 84 241 0
c gate 242 -85 -241 0
-85 -242 0
-241 -242 0
85 241 242 0
c gate 243 -240 242 0
-240 -243 0
242 -243 0
240 -242 243 0
c gate 244 240 -242 0
240 -244 0
-242 -244 0
-240 242 244 0
c gate 245 -243 -244 0
-243 -245 0
-244 -245 0
243 244 245 0
c gate 246 234 245 0
234 -246 0
245 -246 0
-234 -245 246 0
c gate 247 -243 -246 0
-243 -247 0
-246 -247 0
243 246 247 0
c gate 248 125 -127 0
125 -248 0
-127 -248 0
-125 127 248 0
c gate 249 -128 -248 0
-128 -249 0
-248 -249 0
128 248 249 0
c gate 250 -247 249 0
-247 -250 0
249 -250 0
247 -249 250 0
c gate 251 -129 167 0
-129 -251 0
167 -251 0
129 -167 251 0
c gate 252 -250 -251 0
-250 -252 0
-251 -252 0
250 251 252 0
c gate 253 204 -252 0
204 -253 0
-252 -253 0
-204 252 253 0
c gate 254 -197 -200 0
-197 -254 0
-200 -254 0
197 200 254 0
c gate 255 -175 -178 0
-175 -255 0
-178 -255 0
175 178 255 0
c gate 256 5 16 0
5 -256 0
16 -256 0
-5 -16 256 0
c gate 257 6 15 0
6 -257 0
15 -257 0
-6 -15 257 0
c gate 258 -185 -187 0
-185 -258 0
-187 -258 0
185 187 258 0
c gate 259 257 -258 0
257 -259 0
-258 -259 0
-257 258 259 0
c gate 260 -257 258 0
-257 -260 0
258 -260 0
257 -258 260 0
c gate 261 -259 -260 0
-259 -261 0
-260 -261 0
259 260 261 0
c gate 262 256 261 0
256 -262 0
261 -262 0
-256 -261 262 0
c gate 263 -256 -261 0
-256 -263 0
-261 -263 0
256 261 263 0
c gate 264 -262 -263 0
-262 -264 0
-263 -264 0
262 263 264 0
c gate 265 8 13 0
8 -265 0
13 -265 0
-8 -13 265 0
c gate 266 7 14 0
7 -266 0
14 -266 0
-7 -14 266 0
c gate 267 265 266 0
265 -267 0
266 -267 0
-265 -266 267 0
c gate 268 -265 -266 0
-265 -268 0
-266 -268 0
265 266 268 0
c gate 269 -267 -268 0
-267 -269 0
-268 -269 0
267 268 269 0
c gate 270 264 269 0
264 -270 0
269 -270 0
-264 -269 270 0
c gate 271 -264 -269 0
-264 -271 0
-269 -271 0
264 269 271 0
c gate 272 -270 -271 0
-270 -272 0
-271 -272 0
270 271 272 0
c gate 273 -191 -194 0
-191 -273 0
-194 -273 0
191 194 273 0
c gate 274 272 -273 0
272 -274 0
-273 -274 0
-272 273 274 0
c gate 275 -272 273 0
-272 -275 0
273 -275 0
272 -273 275 0
c gate 276 -274 -275 0
-274 -276 0
-275 -276 0
274 275 276 0
c gate 277 -255 276 0
-255 -277 0
276 -277 0
255 -276 277 0
c gate 278 255 -276 0
255 -278 0
-276 -278 0
-255 276 278 0
c gate 279 -277 -278 0
-277 -279 0
-278 -279 0
277 278 279 0
c gate 280 -254 279 0
-254 -280 0
279 -280 0
254 -279 280 0
c gate 281 -169 202 0
-169 -281 0
202 -281 0
169 -202 281 0
c gate 282 -280 -281 0
-280 -282 0
-281 -282 0
280 281 282 0
c gate 283 -253 282 0
-253 -283 0
282 -283 0
253 -282 283 0
c gate 284 254 -279 0
254 -284 0
-279 -284 0
-254 279 284 0
c gate 285 8 14 0
8 -285 0
14 -285 0
-8 -14 285 0
c gate 286 6 16 0
6 -286 0
16 -286 0
-6 -16 286 0
c gate 287 15 267 0
15 -287 0
267 -287 0
-15 -267 287 0
c gate 288 7 15 0
7 -288 0
15 -288 0
-7 -15 288 0
c gate 289 -267 -288 0
-267 -289 0
-288 -289 0
267 288 289 0
c gate 290 -287 -289 0
-287 -290 0
-289 -290 0
287 289 290 0
c gate 291 286 290 0
286 -291 0
290 -291 0
-286 -290 291 0
c gate 292 -286 -290 0
-286 -292 0
-290 -292 0
286 290 292 0
c gate 293 -291 -292 0
-291 -293 0
-292 -293 0
291 292 293 0
c gate 294 285 293 0
285 -294 0
293 -294 0
-285 -293 294 0
c gate 295 -285 -293 0
-285 -295 0
-293 -295 0
285 293 295 0
c gate 296 -294 -295 0
-294 -296 0
-295 -296 0
294 295 296 0
c gate 297 270 296 0
270 -297 0
296 -297 0
-270 -296 297 0
c gate 298 -259 -262 0
-259 -298 0
-262 -298 0
259 262 298 0
c gate 299 -270 -296 0
-270 -299 0
-296 -299 0
270 296 299 0
c gate 300 -297 -299 0
-297 -300 0
-299 -300 0
297 299 300 0
c gate 301 -298 300 0
-298 -301 0
300 -301 0
298 -300 301 0
c gate 302 -297 -301 0
-297 -302 0
-301 -302 0
297 301 302 0
c gate 303 -287 -291 0
-287 -303 0
-291 -303 0
287 291 303 0
c gate 304 7 16 0
7 -304 0
16 -304 0
-7 -16 304 0
c gate 305 8 15 0
8 -305 0
15 -305 0
-8 -15 305 0
c gate 306 304 305 0
304 -306 0
305 -306 0
-304 -305 306 0
c gate 307 -304 -305 0
-304 -307 0
-305 -307 0
304 305 307 0
c gate 308 -306 -307 0
-306 -308 0
-307 -308 0
306 307 308 0
c gate 309 294 -308 0
294 -309 0
-308 -309 0
-294 308 309 0
c gate 310 -294 308 0
-294 -310 0
308 -310 0
294 -308 310 0
c gate 311 -309 -310 0
-309 -311 0
-310 -311 0
309 310 311 0
c gate 312 -303 -311 0
-303 -312 0
-311 -312 0
303 311 312 0
c gate 313 303 311 0
303 -313 0
311 -313 0
-303 -311 313 0
c gate 314 -312 -313 0
-312 -314 0
-313 -314 0
312 313 314 0
c gate 315 -302 314 0
-302 -315 0
314 -315 0
302 -314 315 0
c gate 316 -274 -277 0
-274 -316 0
-277 -316 0
274 277 316 0
c gate 317 298 -300 0
298 -317 0
-300 -317 0
-298 300 317 0
c gate 318 -301 -317 0
-301 -318 0
-317 -318 0
301 317 318 0
c gate 319 -316 318 0
-316 -319 0
318 -319 0
316 -318 319 0
c gate 320 -315 -319 0
-315 -320 0
-319 -320 0
315 319 320 0
c gate 321 302 -314 0
302 -321 0
-314 -321 0
-302 314 321 0
c gate 322 316 -318 0
316 -322 0
-318 -322 0
-316 318 322 0
c gate 323 -321 -322 0
-321 -323 0
-322 -323 0
321 322 323 0
c gate 324 320 323 0
320 -324 0
323 -324 0
-320 -323 324 0
c gate 325 -284 324 0
-284 -325 0
324 -325 0
284 -324 325 0
c gate 326 247 -249 0
247 -326 0
-249 -326 0
-247 249 326 0
c gate 327 306 312 0
306 -327 0
312 -327 0
-306 -312 327 0
c gate 328 4 9 0
4 -328 0
9 -328 0
-4 -9 328 0
c gate 329 3 10 0
3 -329 0
10 -329 0
-3 -10 329 0
c gate 330 328 329 0
328 -330 0
329 -330 0
-328 -329 330 0
c gate 331 2 11 0
2 -331 0
11 -331 0
-2 -11 331 0
c gate 332 -328 -329 0
-328 -332 0
-329 -332 0
328 329 332 0
c gate 333 -330 -332 0
-330 -333 0
-332 -333 0
330 332 333 0
c gate 334 331 333 0
331 -334 0
333 -334 0
-331 -333 334 0
c gate 335 -330 -334 0
-330 -335 0
-334 -335 0
330 334 335 0
c gate 336 -208 -210 0
-208 -336 0
-210 -336 0
208 210 336 0
c gate 337 -211 -336 0
-211 -337 0
-336 -337 0
211 336 337 0
c gate 338 -335 337 0
-335 -338 0
337 -338 0
335 -337 338 0
c gate 339 2 12 0
2 -339 0
12 -339 0
-2 -12 339 0
c gate 340 1 13 0
1 -340 0
13 -340 0
-1 -13 340 0
c gate 341 -339 -340 0
-339 -341 0
-340 -341 0
339 340 341 0
c gate 342 339 340 0
339 -342 0
340 -342 0
-339 -340 342 0
c gate 343 -341 -342 0
-341 -343 0
-342 -343 0
341 342 343 0
c gate 344 335 -337 0
335 -344 0
-337 -344 0
-335 337 344 0
c gate 345 -338 -344 0
-338 -345 0
-344 -345 0
338 344 345 0
c gate 346 343 345 0
343 -346 0
345 -346 0
-343 -345 346 0
c gate 347 -338 -346 0
-338 -347 0
-346 -347 0
338 346 347 0
c gate 348 -217 -226 0
-217 -348 0
-226 -348 0
217 226 348 0
c gate 349 -227 -348 0
-227 -349 0
-348 -349 0
227 348 349 0
c gate 350 -347 349 0
-347 -350 0
349 -350 0
347 -349 350 0
c gate 351 347 -349 0
347 -351 0
-349 -351 0
-347 349 351 0
c gate 352 -350 -351 0
-350 -352 0
-351 -352 0
350 351 352 0
c gate 353 342 352 0
342 -353 0
352 -353 0
-342 -352 353 0
c gate 354 -350 -353 0
-350 -354 0
-353 -354 0
350 353 354 0
c gate 355 -236 -238 0
-236 -355 0
-238 -355 0
236 238 355 0
c gate 356 -239 -355 0
-239 -356 0
-355 -356 0
239 355 356 0
c gate 357 354 -356 0
354 -357 0
-356 -357 0
-354 356 357 0
c gate 358 -354 356 0
-354 -358 0
356 -358 0
354 -356 358 0
c gate 359 -331 -333 0
-331 -359 0
-333 -359 0
331 333 359 0
c gate 360 -334 -359 0
-334 -360 0
-359 -360 0
334 359 360 0
c gate 361 3 9 0
3 -361 0
9 -361 0
-3 -9 361 0
c gate 362 2 10 0
2 -362 0
10 -362 0
-2 -10 362 0
c gate 363 361 362 0
361 -363 0
362 -363 0
-361 -362 363 0
c gate 364 -361 -362 0
-361 -364 0
-362 -364 0
361 362 364 0
c gate 365 1 11 0
1 -365 0
11 -365 0
-1 -11 365 0
c gate 366 -364 365 0
-364 -366 0
365 -366 0
364 -365 366 0
c gate 367 -363 -366 0
-363 -367 0
-366 -367 0
363 366 367 0
c gate 368 360 -367 0
360 -368 0
-367 -368 0
-360 367 368 0
c gate 369 1 12 0
1 -369 0
12 -369 0
-1 -12 369 0
c gate 370 -360 367 0
-360 -370 0
367 -370 0
360 -367 370 0
c gate 371 -368 -370 0
-368 -371 0
-370 -371 0
368 370 371 0
c gate 372 369 371 0
369 -372 0
371 -372 0
-369 -371 372 0
c gate 373 -368 -372 0
-368 -373 0
-372 -373 0
368 372 373 0
c gate 374 -343 -345 0
-343 -374 0
-345 -374 0
343 345 374 0
c gate 375 -346 -374 0
-346 -375 0
-374 -375 0
346 374 375 0
c gate 376 -373 375 0
-373 -376 0
375 -376 0
373 -375 376 0
c gate 377 -342 -352 0
-342 -377 0
-352 -377 0
342 352 377 0
c gate 378 -353 -377 0
-353 -378 0
-377 -378 0
353 377 378 0
c gate 379 376 378 0
376 -379 0
378 -379 0
-376 -378 379 0
c gate 380 -358 -379 0
-358 -380 0
-379 -380 0
358 379 380 0
c gate 381 -357 -380 0
-357 -381 0
-380 -381 0
357 380 381 0
c gate 382 327 381 0
327 -382 0
381 -382 0
-327 -381 382 0
c gate 383 -326 382 0
-326 -383 0
382 -383 0
326 -382 383 0
c gate 384 204 383 0
204 -384 0
383 -384 0
-204 -383 384 0
c gate 385 325 384 0
325 -385 0
384 -385 0
-325 -384 385 0
c gate 386 283 385 0
283 -386 0
385 -386 0
-283 -385 386 0
c gate 387 357 -379 0
357 -387 0
-379 -387 0
-357 379 387 0
c gate 388 373 -375 0
373 -388 0
-375 -388 0
-373 375 388 0
c gate 389 -369 -371 0
-369 -389 0
-371 -389 0
369 371 389 0
c gate 390 -3 -11 0
-3 -390 0
-11 -390 0
3 11 390 0
c gate 391 -208 -390 0
-208 -391 0
-390 -391 0
208 390 391 0
c gate 392 1 9 0
1 -392 0
9 -392 0
-1 -9 392 0
c gate 393 362 392 0
362 -393 0
392 -393 0
-362 -392 393 0
c gate 394 -391 393 0
-391 -394 0
393 -394 0
391 -393 394 0
c gate 395 -372 394 0
-372 -395 0
394 -395 0
372 -394 395 0
c gate 396 -389 395 0
-389 -396 0
395 -396 0
389 -395 396 0
c gate 397 -376 396 0
-376 -397 0
396 -397 0
376 -396 397 0
c gate 398 -388 397 0
-388 -398 0
397 -398 0
388 -397 398 0
c gate 399 378 398 0
378 -399 0
398 -399 0
-378 -398 399 0
c gate 400 -387 399 0
-387 -400 0
399 -400 0
387 -399 400 0
c gate 401 -381 400 0
-381 -401 0
400 -401 0
381 -400 401 0
c gate 402 -386 -401 0
-386 -402 0
-401 -402 0
386 401 402 0
c gate 403 -234 -245 0
-234 -403 0
-245 -403 0
234 245 403 0
c gate 404 -246 -403 0
-246 -404 0
-403 -404 0
246 403 404 0
c gate 405 -402 404 0
-402 -405 0
404 -405 0
402 -404 405 0
c gate 406 -283 325 0
-283 -406 0
325 -406 0
283 -325 406 0
c gate 407 -320 -321 0
-320 -407 0
-321 -407 0
320 321 407 0
c gate 408 -288 -307 0
-288 -408 0
-307 -408 0
288 307 408 0
c gate 409 -314 408 0
-314 -409 0
408 -409 0
314 -408 409 0
c gate 410 -407 -409 0
-407 -410 0
-409 -410 0
407 409 410 0
c gate 411 -406 410 0
-406 -411 0
410 -411 0
406 -410 411 0
c gate 412 327 -411 0
327 -412 0
-411 -412 0
-327 411 412 0
c gate 413 -405 -412 0
-405 -413 0
-412 -413 0
405 412 413 0
c PO
-413 0
